Traveling Salesman Problem/TSP_generados/Aleatorio1621103332_10.tsp
NAME: Aleatorio1621103332_10.tsp
COMMENT: Randomly generated scenario
TYPE: TSP
DIMENSION: 10
EDGE_WEIGHT_TYPE: ATT
NODE_COORD_SECTION
1 34.64 21.4
2 14.12 14.21
3 4.77 46.97
4 48.81 40.2
5 24.17 7.48
6 0.17 19.57
7 36.38 24.01
8 8.95 20.83
9 32.88 14.0
10 31.27 38.49
