Traveling Salesman Problem/TSP_generados/Aleatorio1621103332_10.opt.tour
NAME: Aleatorio1621103332_10.opt.tour
COMMENT: Optimal solution for Aleatorio1621103332_10 (144.62970686023326)
TYPE: TOUR
DIMENSION: 10
TOUR_SECTION
1 7 4 10 3 6 8 2 5 9
-1
EOF
